
;this file is automatically generated: Tue Feb 23 13:38:04 CST 2021

;declarations generated

(declare-fun obj_ce220e7a_5814_4a2b_9e85_9730cec10537 ( Int) Int)
(declare-fun oclExcludes ( Int Int) Bool)
(declare-fun type_ef860ba6_70b6_4477_ba89_7a3216b2f259_Class9 ( Int) Bool)
(declare-fun Cardinality ( Int) Int)
(declare-fun type_ef860ba6_70b6_4477_ba89_7a3216b2f259_Class5 ( Int) Bool)
(declare-fun type_ef860ba6_70b6_4477_ba89_7a3216b2f259_Class6 ( Int) Bool)
(declare-fun type_ef860ba6_70b6_4477_ba89_7a3216b2f259_Class7 ( Int) Bool)
(declare-fun type_ef860ba6_70b6_4477_ba89_7a3216b2f259_Class8 ( Int) Bool)
(declare-fun type_ef860ba6_70b6_4477_ba89_7a3216b2f259_Class1 ( Int) Bool)
(declare-fun type_ef860ba6_70b6_4477_ba89_7a3216b2f259_Class2 ( Int) Bool)
(declare-fun type_ef860ba6_70b6_4477_ba89_7a3216b2f259_Class3 ( Int) Bool)
(declare-fun type_ef860ba6_70b6_4477_ba89_7a3216b2f259_Class4 ( Int) Bool)
(declare-fun type_ef860ba6_70b6_4477_ba89_7a3216b2f259_Class0 ( Int) Bool)
(declare-fun class40_Class40BoolAttr0 ( Int) Bool)
(declare-fun class40_Class40BoolAttr1 ( Int) Bool)
(declare-fun type_ef860ba6_70b6_4477_ba89_7a3216b2f259_Class15 ( Int) Bool)
(declare-fun type_ef860ba6_70b6_4477_ba89_7a3216b2f259_Class14 ( Int) Bool)
(declare-fun type_ef860ba6_70b6_4477_ba89_7a3216b2f259_Class17 ( Int) Bool)
(declare-fun type_ef860ba6_70b6_4477_ba89_7a3216b2f259_Class16 ( Int) Bool)
(declare-fun type_ef860ba6_70b6_4477_ba89_7a3216b2f259_Class19 ( Int) Bool)
(declare-fun type_ef860ba6_70b6_4477_ba89_7a3216b2f259_Class18 ( Int) Bool)
(declare-fun type_ef860ba6_70b6_4477_ba89_7a3216b2f259_Class11 ( Int) Bool)
(declare-fun type_ef860ba6_70b6_4477_ba89_7a3216b2f259_Class10 ( Int) Bool)
(declare-fun type_ef860ba6_70b6_4477_ba89_7a3216b2f259_Class13 ( Int) Bool)
(declare-fun type_ef860ba6_70b6_4477_ba89_7a3216b2f259_Class12 ( Int) Bool)
(declare-fun type_ef860ba6_70b6_4477_ba89_7a3216b2f259_Class26 ( Int) Bool)
(declare-fun type_ef860ba6_70b6_4477_ba89_7a3216b2f259_Class25 ( Int) Bool)
(declare-fun type_ef860ba6_70b6_4477_ba89_7a3216b2f259_Class28 ( Int) Bool)
(declare-fun type_ef860ba6_70b6_4477_ba89_7a3216b2f259_Class27 ( Int) Bool)
(declare-fun type_ef860ba6_70b6_4477_ba89_7a3216b2f259_Class29 ( Int) Bool)
(declare-fun type_ef860ba6_70b6_4477_ba89_7a3216b2f259_Class20 ( Int) Bool)
(declare-fun type_ef860ba6_70b6_4477_ba89_7a3216b2f259_Class22 ( Int) Bool)
(declare-fun type_ef860ba6_70b6_4477_ba89_7a3216b2f259_Class21 ( Int) Bool)
(declare-fun type_ef860ba6_70b6_4477_ba89_7a3216b2f259_Class24 ( Int) Bool)
(declare-fun type_ef860ba6_70b6_4477_ba89_7a3216b2f259_Class23 ( Int) Bool)
(declare-fun type_ef860ba6_70b6_4477_ba89_7a3216b2f259_Class37 ( Int) Bool)
(declare-fun type_ef860ba6_70b6_4477_ba89_7a3216b2f259_Class36 ( Int) Bool)
(declare-fun type_ef860ba6_70b6_4477_ba89_7a3216b2f259_Class39 ( Int) Bool)
(declare-fun type_ef860ba6_70b6_4477_ba89_7a3216b2f259_Class38 ( Int) Bool)
(declare-fun type_ef860ba6_70b6_4477_ba89_7a3216b2f259_Class31 ( Int) Bool)
(declare-fun type_ef860ba6_70b6_4477_ba89_7a3216b2f259_Class30 ( Int) Bool)
(declare-fun type_ef860ba6_70b6_4477_ba89_7a3216b2f259_Class33 ( Int) Bool)
(declare-fun type_ef860ba6_70b6_4477_ba89_7a3216b2f259_Class32 ( Int) Bool)
(declare-fun type_ef860ba6_70b6_4477_ba89_7a3216b2f259_Class35 ( Int) Bool)
(declare-fun type_ef860ba6_70b6_4477_ba89_7a3216b2f259_Class34 ( Int) Bool)
(declare-fun type_ef860ba6_70b6_4477_ba89_7a3216b2f259_Class40 ( Int) Bool)
(declare-fun type_ef860ba6_70b6_4477_ba89_7a3216b2f259_Class42 ( Int) Bool)
(declare-fun type_ef860ba6_70b6_4477_ba89_7a3216b2f259_Class41 ( Int) Bool)
(declare-fun type_ef860ba6_70b6_4477_ba89_7a3216b2f259_Class44 ( Int) Bool)
(declare-fun type_ef860ba6_70b6_4477_ba89_7a3216b2f259_Class43 ( Int) Bool)
(declare-fun type_ef860ba6_70b6_4477_ba89_7a3216b2f259_Class45 ( Int) Bool)
(declare-fun oclSelect ( Int Bool) Int)
(declare-fun Enum0 ( Int) Int)
(declare-fun Enum1 ( Int) Int)
(declare-fun Enum2 ( Int) Int)
(declare-fun container_ ( Int) Int)
(declare-fun class40_Class40IntAttr2 ( Int) Int)
(declare-fun oclIncludes ( Int Int) Bool)
(declare-fun ObjAt ( Int Int) Int)

;formula(s) generated
(assert (forall ((p Int)) (=> ( type_ef860ba6_70b6_4477_ba89_7a3216b2f259_Class40 p )  (and (>= ( Enum0 ( obj_ce220e7a_5814_4a2b_9e85_9730cec10537 p )  )  0) (<= ( Enum0 ( obj_ce220e7a_5814_4a2b_9e85_9730cec10537 p )  )  3)))))
(assert (! (or (forall ((v Int)) (=> (and (and (and ( type_ef860ba6_70b6_4477_ba89_7a3216b2f259_Class40 v )  ( type_ef860ba6_70b6_4477_ba89_7a3216b2f259_Class21 v ) ) ( type_ef860ba6_70b6_4477_ba89_7a3216b2f259_Class2 v ) ) ( type_ef860ba6_70b6_4477_ba89_7a3216b2f259_Class20 v ) ) ( class40_Class40BoolAttr1 ( obj_ce220e7a_5814_4a2b_9e85_9730cec10537 v )  ) )) (forall ((v Int)) (=> (and (and (and ( type_ef860ba6_70b6_4477_ba89_7a3216b2f259_Class40 v )  ( type_ef860ba6_70b6_4477_ba89_7a3216b2f259_Class21 v ) ) ( type_ef860ba6_70b6_4477_ba89_7a3216b2f259_Class2 v ) ) ( type_ef860ba6_70b6_4477_ba89_7a3216b2f259_Class20 v ) ) (or (not (= ( class40_Class40IntAttr2 ( obj_ce220e7a_5814_4a2b_9e85_9730cec10537 v )  )  14) ) (and (forall ((v Int)) (=> (and (and (and ( type_ef860ba6_70b6_4477_ba89_7a3216b2f259_Class40 v )  ( type_ef860ba6_70b6_4477_ba89_7a3216b2f259_Class21 v ) ) ( type_ef860ba6_70b6_4477_ba89_7a3216b2f259_Class2 v ) ) ( type_ef860ba6_70b6_4477_ba89_7a3216b2f259_Class20 v ) ) ( class40_Class40BoolAttr0 ( obj_ce220e7a_5814_4a2b_9e85_9730cec10537 v )  ) )) (forall ((v Int)) (=> (and (and (and ( type_ef860ba6_70b6_4477_ba89_7a3216b2f259_Class40 v )  ( type_ef860ba6_70b6_4477_ba89_7a3216b2f259_Class21 v ) ) ( type_ef860ba6_70b6_4477_ba89_7a3216b2f259_Class2 v ) ) ( type_ef860ba6_70b6_4477_ba89_7a3216b2f259_Class20 v ) ) (>= ( class40_Class40IntAttr2 ( obj_ce220e7a_5814_4a2b_9e85_9730cec10537 v )  )  6)))))))):named l0))
(assert (! (and (forall ((v Int)) (=> (and (and (and ( type_ef860ba6_70b6_4477_ba89_7a3216b2f259_Class40 v )  ( type_ef860ba6_70b6_4477_ba89_7a3216b2f259_Class21 v ) ) ( type_ef860ba6_70b6_4477_ba89_7a3216b2f259_Class2 v ) ) ( type_ef860ba6_70b6_4477_ba89_7a3216b2f259_Class20 v ) ) (= ( Enum0 ( obj_ce220e7a_5814_4a2b_9e85_9730cec10537 v )  )  1))) (forall ((v Int)) (=> (and (and (and ( type_ef860ba6_70b6_4477_ba89_7a3216b2f259_Class40 v )  ( type_ef860ba6_70b6_4477_ba89_7a3216b2f259_Class21 v ) ) ( type_ef860ba6_70b6_4477_ba89_7a3216b2f259_Class2 v ) ) ( type_ef860ba6_70b6_4477_ba89_7a3216b2f259_Class20 v ) ) (< ( class40_Class40IntAttr2 ( obj_ce220e7a_5814_4a2b_9e85_9730cec10537 v )  )  12)))):named l1))
(assert (! (exists ((o Int)) (and (and (and ( type_ef860ba6_70b6_4477_ba89_7a3216b2f259_Class0 ( obj_ce220e7a_5814_4a2b_9e85_9730cec10537 o )  )  ( type_ef860ba6_70b6_4477_ba89_7a3216b2f259_Class22 ( obj_ce220e7a_5814_4a2b_9e85_9730cec10537 o )  ) ) ( type_ef860ba6_70b6_4477_ba89_7a3216b2f259_Class35 ( obj_ce220e7a_5814_4a2b_9e85_9730cec10537 o )  ) ) ( type_ef860ba6_70b6_4477_ba89_7a3216b2f259_Class2 ( obj_ce220e7a_5814_4a2b_9e85_9730cec10537 o )  ) )):named c0))
(assert (! (exists ((o Int)) ( type_ef860ba6_70b6_4477_ba89_7a3216b2f259_Class1 ( obj_ce220e7a_5814_4a2b_9e85_9730cec10537 o )  ) ):named c1))
(assert (! (exists ((o Int)) (and (and (and (and ( type_ef860ba6_70b6_4477_ba89_7a3216b2f259_Class10 ( obj_ce220e7a_5814_4a2b_9e85_9730cec10537 o )  )  ( type_ef860ba6_70b6_4477_ba89_7a3216b2f259_Class16 ( obj_ce220e7a_5814_4a2b_9e85_9730cec10537 o )  ) ) ( type_ef860ba6_70b6_4477_ba89_7a3216b2f259_Class15 ( obj_ce220e7a_5814_4a2b_9e85_9730cec10537 o )  ) ) ( type_ef860ba6_70b6_4477_ba89_7a3216b2f259_Class41 ( obj_ce220e7a_5814_4a2b_9e85_9730cec10537 o )  ) ) ( type_ef860ba6_70b6_4477_ba89_7a3216b2f259_Class2 ( obj_ce220e7a_5814_4a2b_9e85_9730cec10537 o )  ) )):named c2))
(assert (! (exists ((o Int)) ( type_ef860ba6_70b6_4477_ba89_7a3216b2f259_Class11 ( obj_ce220e7a_5814_4a2b_9e85_9730cec10537 o )  ) ):named c3))
(assert (! (exists ((o Int)) (and (and (and (and ( type_ef860ba6_70b6_4477_ba89_7a3216b2f259_Class12 ( obj_ce220e7a_5814_4a2b_9e85_9730cec10537 o )  )  ( type_ef860ba6_70b6_4477_ba89_7a3216b2f259_Class22 ( obj_ce220e7a_5814_4a2b_9e85_9730cec10537 o )  ) ) ( type_ef860ba6_70b6_4477_ba89_7a3216b2f259_Class35 ( obj_ce220e7a_5814_4a2b_9e85_9730cec10537 o )  ) ) ( type_ef860ba6_70b6_4477_ba89_7a3216b2f259_Class0 ( obj_ce220e7a_5814_4a2b_9e85_9730cec10537 o )  ) ) ( type_ef860ba6_70b6_4477_ba89_7a3216b2f259_Class2 ( obj_ce220e7a_5814_4a2b_9e85_9730cec10537 o )  ) )):named c4))
(assert (! (exists ((o Int)) (and (and (and ( type_ef860ba6_70b6_4477_ba89_7a3216b2f259_Class13 ( obj_ce220e7a_5814_4a2b_9e85_9730cec10537 o )  )  ( type_ef860ba6_70b6_4477_ba89_7a3216b2f259_Class16 ( obj_ce220e7a_5814_4a2b_9e85_9730cec10537 o )  ) ) ( type_ef860ba6_70b6_4477_ba89_7a3216b2f259_Class15 ( obj_ce220e7a_5814_4a2b_9e85_9730cec10537 o )  ) ) ( type_ef860ba6_70b6_4477_ba89_7a3216b2f259_Class2 ( obj_ce220e7a_5814_4a2b_9e85_9730cec10537 o )  ) )):named c5))
(assert (! (exists ((o Int)) (and (and (and (and (and (and (and ( type_ef860ba6_70b6_4477_ba89_7a3216b2f259_Class14 ( obj_ce220e7a_5814_4a2b_9e85_9730cec10537 o )  )  ( type_ef860ba6_70b6_4477_ba89_7a3216b2f259_Class33 ( obj_ce220e7a_5814_4a2b_9e85_9730cec10537 o )  ) ) ( type_ef860ba6_70b6_4477_ba89_7a3216b2f259_Class13 ( obj_ce220e7a_5814_4a2b_9e85_9730cec10537 o )  ) ) ( type_ef860ba6_70b6_4477_ba89_7a3216b2f259_Class16 ( obj_ce220e7a_5814_4a2b_9e85_9730cec10537 o )  ) ) ( type_ef860ba6_70b6_4477_ba89_7a3216b2f259_Class15 ( obj_ce220e7a_5814_4a2b_9e85_9730cec10537 o )  ) ) ( type_ef860ba6_70b6_4477_ba89_7a3216b2f259_Class4 ( obj_ce220e7a_5814_4a2b_9e85_9730cec10537 o )  ) ) ( type_ef860ba6_70b6_4477_ba89_7a3216b2f259_Class41 ( obj_ce220e7a_5814_4a2b_9e85_9730cec10537 o )  ) ) ( type_ef860ba6_70b6_4477_ba89_7a3216b2f259_Class2 ( obj_ce220e7a_5814_4a2b_9e85_9730cec10537 o )  ) )):named c6))
(assert (! (exists ((o Int)) (and ( type_ef860ba6_70b6_4477_ba89_7a3216b2f259_Class15 ( obj_ce220e7a_5814_4a2b_9e85_9730cec10537 o )  )  ( type_ef860ba6_70b6_4477_ba89_7a3216b2f259_Class2 ( obj_ce220e7a_5814_4a2b_9e85_9730cec10537 o )  ) )):named c7))
(assert (! (exists ((o Int)) (and (and ( type_ef860ba6_70b6_4477_ba89_7a3216b2f259_Class16 ( obj_ce220e7a_5814_4a2b_9e85_9730cec10537 o )  )  ( type_ef860ba6_70b6_4477_ba89_7a3216b2f259_Class15 ( obj_ce220e7a_5814_4a2b_9e85_9730cec10537 o )  ) ) ( type_ef860ba6_70b6_4477_ba89_7a3216b2f259_Class2 ( obj_ce220e7a_5814_4a2b_9e85_9730cec10537 o )  ) )):named c8))
(assert (! (exists ((o Int)) (and (and (and (and ( type_ef860ba6_70b6_4477_ba89_7a3216b2f259_Class17 ( obj_ce220e7a_5814_4a2b_9e85_9730cec10537 o )  )  ( type_ef860ba6_70b6_4477_ba89_7a3216b2f259_Class24 ( obj_ce220e7a_5814_4a2b_9e85_9730cec10537 o )  ) ) ( type_ef860ba6_70b6_4477_ba89_7a3216b2f259_Class26 ( obj_ce220e7a_5814_4a2b_9e85_9730cec10537 o )  ) ) ( type_ef860ba6_70b6_4477_ba89_7a3216b2f259_Class32 ( obj_ce220e7a_5814_4a2b_9e85_9730cec10537 o )  ) ) ( type_ef860ba6_70b6_4477_ba89_7a3216b2f259_Class2 ( obj_ce220e7a_5814_4a2b_9e85_9730cec10537 o )  ) )):named c9))
(assert (! (exists ((o Int)) ( type_ef860ba6_70b6_4477_ba89_7a3216b2f259_Class18 ( obj_ce220e7a_5814_4a2b_9e85_9730cec10537 o )  ) ):named c10))
(assert (! (exists ((o Int)) ( type_ef860ba6_70b6_4477_ba89_7a3216b2f259_Class19 ( obj_ce220e7a_5814_4a2b_9e85_9730cec10537 o )  ) ):named c11))
(assert (! (exists ((o Int)) ( type_ef860ba6_70b6_4477_ba89_7a3216b2f259_Class2 ( obj_ce220e7a_5814_4a2b_9e85_9730cec10537 o )  ) ):named c12))
(assert (! (exists ((o Int)) (and (and ( type_ef860ba6_70b6_4477_ba89_7a3216b2f259_Class20 ( obj_ce220e7a_5814_4a2b_9e85_9730cec10537 o )  )  ( type_ef860ba6_70b6_4477_ba89_7a3216b2f259_Class21 ( obj_ce220e7a_5814_4a2b_9e85_9730cec10537 o )  ) ) ( type_ef860ba6_70b6_4477_ba89_7a3216b2f259_Class2 ( obj_ce220e7a_5814_4a2b_9e85_9730cec10537 o )  ) )):named c13))
(assert (! (exists ((o Int)) (and ( type_ef860ba6_70b6_4477_ba89_7a3216b2f259_Class21 ( obj_ce220e7a_5814_4a2b_9e85_9730cec10537 o )  )  ( type_ef860ba6_70b6_4477_ba89_7a3216b2f259_Class2 ( obj_ce220e7a_5814_4a2b_9e85_9730cec10537 o )  ) )):named c14))
(assert (! (exists ((o Int)) (and (and ( type_ef860ba6_70b6_4477_ba89_7a3216b2f259_Class22 ( obj_ce220e7a_5814_4a2b_9e85_9730cec10537 o )  )  ( type_ef860ba6_70b6_4477_ba89_7a3216b2f259_Class35 ( obj_ce220e7a_5814_4a2b_9e85_9730cec10537 o )  ) ) ( type_ef860ba6_70b6_4477_ba89_7a3216b2f259_Class2 ( obj_ce220e7a_5814_4a2b_9e85_9730cec10537 o )  ) )):named c15))
(assert (! (exists ((o Int)) (and (and (and (and (and (and ( type_ef860ba6_70b6_4477_ba89_7a3216b2f259_Class23 ( obj_ce220e7a_5814_4a2b_9e85_9730cec10537 o )  )  ( type_ef860ba6_70b6_4477_ba89_7a3216b2f259_Class12 ( obj_ce220e7a_5814_4a2b_9e85_9730cec10537 o )  ) ) ( type_ef860ba6_70b6_4477_ba89_7a3216b2f259_Class22 ( obj_ce220e7a_5814_4a2b_9e85_9730cec10537 o )  ) ) ( type_ef860ba6_70b6_4477_ba89_7a3216b2f259_Class25 ( obj_ce220e7a_5814_4a2b_9e85_9730cec10537 o )  ) ) ( type_ef860ba6_70b6_4477_ba89_7a3216b2f259_Class35 ( obj_ce220e7a_5814_4a2b_9e85_9730cec10537 o )  ) ) ( type_ef860ba6_70b6_4477_ba89_7a3216b2f259_Class0 ( obj_ce220e7a_5814_4a2b_9e85_9730cec10537 o )  ) ) ( type_ef860ba6_70b6_4477_ba89_7a3216b2f259_Class2 ( obj_ce220e7a_5814_4a2b_9e85_9730cec10537 o )  ) )):named c16))
(assert (! (exists ((o Int)) (and (and (and ( type_ef860ba6_70b6_4477_ba89_7a3216b2f259_Class24 ( obj_ce220e7a_5814_4a2b_9e85_9730cec10537 o )  )  ( type_ef860ba6_70b6_4477_ba89_7a3216b2f259_Class26 ( obj_ce220e7a_5814_4a2b_9e85_9730cec10537 o )  ) ) ( type_ef860ba6_70b6_4477_ba89_7a3216b2f259_Class32 ( obj_ce220e7a_5814_4a2b_9e85_9730cec10537 o )  ) ) ( type_ef860ba6_70b6_4477_ba89_7a3216b2f259_Class2 ( obj_ce220e7a_5814_4a2b_9e85_9730cec10537 o )  ) )):named c17))
(assert (! (exists ((o Int)) (and (and (and (and (and ( type_ef860ba6_70b6_4477_ba89_7a3216b2f259_Class25 ( obj_ce220e7a_5814_4a2b_9e85_9730cec10537 o )  )  ( type_ef860ba6_70b6_4477_ba89_7a3216b2f259_Class12 ( obj_ce220e7a_5814_4a2b_9e85_9730cec10537 o )  ) ) ( type_ef860ba6_70b6_4477_ba89_7a3216b2f259_Class22 ( obj_ce220e7a_5814_4a2b_9e85_9730cec10537 o )  ) ) ( type_ef860ba6_70b6_4477_ba89_7a3216b2f259_Class35 ( obj_ce220e7a_5814_4a2b_9e85_9730cec10537 o )  ) ) ( type_ef860ba6_70b6_4477_ba89_7a3216b2f259_Class0 ( obj_ce220e7a_5814_4a2b_9e85_9730cec10537 o )  ) ) ( type_ef860ba6_70b6_4477_ba89_7a3216b2f259_Class2 ( obj_ce220e7a_5814_4a2b_9e85_9730cec10537 o )  ) )):named c18))
(assert (! (exists ((o Int)) (and (and ( type_ef860ba6_70b6_4477_ba89_7a3216b2f259_Class26 ( obj_ce220e7a_5814_4a2b_9e85_9730cec10537 o )  )  ( type_ef860ba6_70b6_4477_ba89_7a3216b2f259_Class32 ( obj_ce220e7a_5814_4a2b_9e85_9730cec10537 o )  ) ) ( type_ef860ba6_70b6_4477_ba89_7a3216b2f259_Class2 ( obj_ce220e7a_5814_4a2b_9e85_9730cec10537 o )  ) )):named c19))
(assert (! (exists ((o Int)) (and ( type_ef860ba6_70b6_4477_ba89_7a3216b2f259_Class27 ( obj_ce220e7a_5814_4a2b_9e85_9730cec10537 o )  )  ( type_ef860ba6_70b6_4477_ba89_7a3216b2f259_Class2 ( obj_ce220e7a_5814_4a2b_9e85_9730cec10537 o )  ) )):named c20))
(assert (! (exists ((o Int)) ( type_ef860ba6_70b6_4477_ba89_7a3216b2f259_Class28 ( obj_ce220e7a_5814_4a2b_9e85_9730cec10537 o )  ) ):named c21))
(assert (! (exists ((o Int)) ( type_ef860ba6_70b6_4477_ba89_7a3216b2f259_Class29 ( obj_ce220e7a_5814_4a2b_9e85_9730cec10537 o )  ) ):named c22))
(assert (! (exists ((o Int)) ( type_ef860ba6_70b6_4477_ba89_7a3216b2f259_Class3 ( obj_ce220e7a_5814_4a2b_9e85_9730cec10537 o )  ) ):named c23))
(assert (! (exists ((o Int)) (and ( type_ef860ba6_70b6_4477_ba89_7a3216b2f259_Class30 ( obj_ce220e7a_5814_4a2b_9e85_9730cec10537 o )  )  ( type_ef860ba6_70b6_4477_ba89_7a3216b2f259_Class2 ( obj_ce220e7a_5814_4a2b_9e85_9730cec10537 o )  ) )):named c24))
(assert (! (exists ((o Int)) (and (and (and (and ( type_ef860ba6_70b6_4477_ba89_7a3216b2f259_Class31 ( obj_ce220e7a_5814_4a2b_9e85_9730cec10537 o )  )  ( type_ef860ba6_70b6_4477_ba89_7a3216b2f259_Class16 ( obj_ce220e7a_5814_4a2b_9e85_9730cec10537 o )  ) ) ( type_ef860ba6_70b6_4477_ba89_7a3216b2f259_Class15 ( obj_ce220e7a_5814_4a2b_9e85_9730cec10537 o )  ) ) ( type_ef860ba6_70b6_4477_ba89_7a3216b2f259_Class41 ( obj_ce220e7a_5814_4a2b_9e85_9730cec10537 o )  ) ) ( type_ef860ba6_70b6_4477_ba89_7a3216b2f259_Class2 ( obj_ce220e7a_5814_4a2b_9e85_9730cec10537 o )  ) )):named c25))
(assert (! (exists ((o Int)) (and ( type_ef860ba6_70b6_4477_ba89_7a3216b2f259_Class32 ( obj_ce220e7a_5814_4a2b_9e85_9730cec10537 o )  )  ( type_ef860ba6_70b6_4477_ba89_7a3216b2f259_Class2 ( obj_ce220e7a_5814_4a2b_9e85_9730cec10537 o )  ) )):named c26))
(assert (! (exists ((o Int)) (and (and (and (and (and ( type_ef860ba6_70b6_4477_ba89_7a3216b2f259_Class33 ( obj_ce220e7a_5814_4a2b_9e85_9730cec10537 o )  )  ( type_ef860ba6_70b6_4477_ba89_7a3216b2f259_Class13 ( obj_ce220e7a_5814_4a2b_9e85_9730cec10537 o )  ) ) ( type_ef860ba6_70b6_4477_ba89_7a3216b2f259_Class16 ( obj_ce220e7a_5814_4a2b_9e85_9730cec10537 o )  ) ) ( type_ef860ba6_70b6_4477_ba89_7a3216b2f259_Class15 ( obj_ce220e7a_5814_4a2b_9e85_9730cec10537 o )  ) ) ( type_ef860ba6_70b6_4477_ba89_7a3216b2f259_Class41 ( obj_ce220e7a_5814_4a2b_9e85_9730cec10537 o )  ) ) ( type_ef860ba6_70b6_4477_ba89_7a3216b2f259_Class2 ( obj_ce220e7a_5814_4a2b_9e85_9730cec10537 o )  ) )):named c27))
(assert (! (exists ((o Int)) ( type_ef860ba6_70b6_4477_ba89_7a3216b2f259_Class34 ( obj_ce220e7a_5814_4a2b_9e85_9730cec10537 o )  ) ):named c28))
(assert (! (exists ((o Int)) (and ( type_ef860ba6_70b6_4477_ba89_7a3216b2f259_Class35 ( obj_ce220e7a_5814_4a2b_9e85_9730cec10537 o )  )  ( type_ef860ba6_70b6_4477_ba89_7a3216b2f259_Class2 ( obj_ce220e7a_5814_4a2b_9e85_9730cec10537 o )  ) )):named c29))
(assert (! (exists ((o Int)) ( type_ef860ba6_70b6_4477_ba89_7a3216b2f259_Class36 ( obj_ce220e7a_5814_4a2b_9e85_9730cec10537 o )  ) ):named c30))
(assert (! (exists ((o Int)) ( type_ef860ba6_70b6_4477_ba89_7a3216b2f259_Class37 ( obj_ce220e7a_5814_4a2b_9e85_9730cec10537 o )  ) ):named c31))
(assert (! (exists ((o Int)) (and ( type_ef860ba6_70b6_4477_ba89_7a3216b2f259_Class38 ( obj_ce220e7a_5814_4a2b_9e85_9730cec10537 o )  )  ( type_ef860ba6_70b6_4477_ba89_7a3216b2f259_Class2 ( obj_ce220e7a_5814_4a2b_9e85_9730cec10537 o )  ) )):named c32))
(assert (! (exists ((o Int)) ( type_ef860ba6_70b6_4477_ba89_7a3216b2f259_Class39 ( obj_ce220e7a_5814_4a2b_9e85_9730cec10537 o )  ) ):named c33))
(assert (! (exists ((o Int)) (and (and (and (and (and (and ( type_ef860ba6_70b6_4477_ba89_7a3216b2f259_Class4 ( obj_ce220e7a_5814_4a2b_9e85_9730cec10537 o )  )  ( type_ef860ba6_70b6_4477_ba89_7a3216b2f259_Class33 ( obj_ce220e7a_5814_4a2b_9e85_9730cec10537 o )  ) ) ( type_ef860ba6_70b6_4477_ba89_7a3216b2f259_Class13 ( obj_ce220e7a_5814_4a2b_9e85_9730cec10537 o )  ) ) ( type_ef860ba6_70b6_4477_ba89_7a3216b2f259_Class16 ( obj_ce220e7a_5814_4a2b_9e85_9730cec10537 o )  ) ) ( type_ef860ba6_70b6_4477_ba89_7a3216b2f259_Class15 ( obj_ce220e7a_5814_4a2b_9e85_9730cec10537 o )  ) ) ( type_ef860ba6_70b6_4477_ba89_7a3216b2f259_Class41 ( obj_ce220e7a_5814_4a2b_9e85_9730cec10537 o )  ) ) ( type_ef860ba6_70b6_4477_ba89_7a3216b2f259_Class2 ( obj_ce220e7a_5814_4a2b_9e85_9730cec10537 o )  ) )):named c34))
(assert (! (exists ((o Int)) (and (and (and ( type_ef860ba6_70b6_4477_ba89_7a3216b2f259_Class40 ( obj_ce220e7a_5814_4a2b_9e85_9730cec10537 o )  )  ( type_ef860ba6_70b6_4477_ba89_7a3216b2f259_Class21 ( obj_ce220e7a_5814_4a2b_9e85_9730cec10537 o )  ) ) ( type_ef860ba6_70b6_4477_ba89_7a3216b2f259_Class2 ( obj_ce220e7a_5814_4a2b_9e85_9730cec10537 o )  ) ) ( type_ef860ba6_70b6_4477_ba89_7a3216b2f259_Class20 ( obj_ce220e7a_5814_4a2b_9e85_9730cec10537 o )  ) )):named c35))
(assert (! (exists ((o Int)) (and (and (and ( type_ef860ba6_70b6_4477_ba89_7a3216b2f259_Class41 ( obj_ce220e7a_5814_4a2b_9e85_9730cec10537 o )  )  ( type_ef860ba6_70b6_4477_ba89_7a3216b2f259_Class16 ( obj_ce220e7a_5814_4a2b_9e85_9730cec10537 o )  ) ) ( type_ef860ba6_70b6_4477_ba89_7a3216b2f259_Class15 ( obj_ce220e7a_5814_4a2b_9e85_9730cec10537 o )  ) ) ( type_ef860ba6_70b6_4477_ba89_7a3216b2f259_Class2 ( obj_ce220e7a_5814_4a2b_9e85_9730cec10537 o )  ) )):named c36))
(assert (! (exists ((o Int)) (and (and (and ( type_ef860ba6_70b6_4477_ba89_7a3216b2f259_Class42 ( obj_ce220e7a_5814_4a2b_9e85_9730cec10537 o )  )  ( type_ef860ba6_70b6_4477_ba89_7a3216b2f259_Class22 ( obj_ce220e7a_5814_4a2b_9e85_9730cec10537 o )  ) ) ( type_ef860ba6_70b6_4477_ba89_7a3216b2f259_Class35 ( obj_ce220e7a_5814_4a2b_9e85_9730cec10537 o )  ) ) ( type_ef860ba6_70b6_4477_ba89_7a3216b2f259_Class2 ( obj_ce220e7a_5814_4a2b_9e85_9730cec10537 o )  ) )):named c37))
(assert (! (exists ((o Int)) ( type_ef860ba6_70b6_4477_ba89_7a3216b2f259_Class43 ( obj_ce220e7a_5814_4a2b_9e85_9730cec10537 o )  ) ):named c38))
(assert (! (exists ((o Int)) (and (and (and (and (and (and ( type_ef860ba6_70b6_4477_ba89_7a3216b2f259_Class44 ( obj_ce220e7a_5814_4a2b_9e85_9730cec10537 o )  )  ( type_ef860ba6_70b6_4477_ba89_7a3216b2f259_Class33 ( obj_ce220e7a_5814_4a2b_9e85_9730cec10537 o )  ) ) ( type_ef860ba6_70b6_4477_ba89_7a3216b2f259_Class13 ( obj_ce220e7a_5814_4a2b_9e85_9730cec10537 o )  ) ) ( type_ef860ba6_70b6_4477_ba89_7a3216b2f259_Class16 ( obj_ce220e7a_5814_4a2b_9e85_9730cec10537 o )  ) ) ( type_ef860ba6_70b6_4477_ba89_7a3216b2f259_Class15 ( obj_ce220e7a_5814_4a2b_9e85_9730cec10537 o )  ) ) ( type_ef860ba6_70b6_4477_ba89_7a3216b2f259_Class41 ( obj_ce220e7a_5814_4a2b_9e85_9730cec10537 o )  ) ) ( type_ef860ba6_70b6_4477_ba89_7a3216b2f259_Class2 ( obj_ce220e7a_5814_4a2b_9e85_9730cec10537 o )  ) )):named c39))
(assert (! (exists ((o Int)) ( type_ef860ba6_70b6_4477_ba89_7a3216b2f259_Class45 ( obj_ce220e7a_5814_4a2b_9e85_9730cec10537 o )  ) ):named c40))
(assert (! (exists ((o Int)) ( type_ef860ba6_70b6_4477_ba89_7a3216b2f259_Class5 ( obj_ce220e7a_5814_4a2b_9e85_9730cec10537 o )  ) ):named c41))
(assert (! (exists ((o Int)) (and (and (and (and ( type_ef860ba6_70b6_4477_ba89_7a3216b2f259_Class6 ( obj_ce220e7a_5814_4a2b_9e85_9730cec10537 o )  )  ( type_ef860ba6_70b6_4477_ba89_7a3216b2f259_Class22 ( obj_ce220e7a_5814_4a2b_9e85_9730cec10537 o )  ) ) ( type_ef860ba6_70b6_4477_ba89_7a3216b2f259_Class35 ( obj_ce220e7a_5814_4a2b_9e85_9730cec10537 o )  ) ) ( type_ef860ba6_70b6_4477_ba89_7a3216b2f259_Class2 ( obj_ce220e7a_5814_4a2b_9e85_9730cec10537 o )  ) ) ( type_ef860ba6_70b6_4477_ba89_7a3216b2f259_Class42 ( obj_ce220e7a_5814_4a2b_9e85_9730cec10537 o )  ) )):named c42))
(assert (! (exists ((o Int)) ( type_ef860ba6_70b6_4477_ba89_7a3216b2f259_Class7 ( obj_ce220e7a_5814_4a2b_9e85_9730cec10537 o )  ) ):named c43))
(assert (! (exists ((o Int)) (and (and (and (and (and ( type_ef860ba6_70b6_4477_ba89_7a3216b2f259_Class8 ( obj_ce220e7a_5814_4a2b_9e85_9730cec10537 o )  )  ( type_ef860ba6_70b6_4477_ba89_7a3216b2f259_Class16 ( obj_ce220e7a_5814_4a2b_9e85_9730cec10537 o )  ) ) ( type_ef860ba6_70b6_4477_ba89_7a3216b2f259_Class15 ( obj_ce220e7a_5814_4a2b_9e85_9730cec10537 o )  ) ) ( type_ef860ba6_70b6_4477_ba89_7a3216b2f259_Class41 ( obj_ce220e7a_5814_4a2b_9e85_9730cec10537 o )  ) ) ( type_ef860ba6_70b6_4477_ba89_7a3216b2f259_Class10 ( obj_ce220e7a_5814_4a2b_9e85_9730cec10537 o )  ) ) ( type_ef860ba6_70b6_4477_ba89_7a3216b2f259_Class2 ( obj_ce220e7a_5814_4a2b_9e85_9730cec10537 o )  ) )):named c44))
(assert (! (exists ((o Int)) (and (and (and (and (and (and (and ( type_ef860ba6_70b6_4477_ba89_7a3216b2f259_Class9 ( obj_ce220e7a_5814_4a2b_9e85_9730cec10537 o )  )  ( type_ef860ba6_70b6_4477_ba89_7a3216b2f259_Class22 ( obj_ce220e7a_5814_4a2b_9e85_9730cec10537 o )  ) ) ( type_ef860ba6_70b6_4477_ba89_7a3216b2f259_Class35 ( obj_ce220e7a_5814_4a2b_9e85_9730cec10537 o )  ) ) ( type_ef860ba6_70b6_4477_ba89_7a3216b2f259_Class16 ( obj_ce220e7a_5814_4a2b_9e85_9730cec10537 o )  ) ) ( type_ef860ba6_70b6_4477_ba89_7a3216b2f259_Class15 ( obj_ce220e7a_5814_4a2b_9e85_9730cec10537 o )  ) ) ( type_ef860ba6_70b6_4477_ba89_7a3216b2f259_Class0 ( obj_ce220e7a_5814_4a2b_9e85_9730cec10537 o )  ) ) ( type_ef860ba6_70b6_4477_ba89_7a3216b2f259_Class41 ( obj_ce220e7a_5814_4a2b_9e85_9730cec10537 o )  ) ) ( type_ef860ba6_70b6_4477_ba89_7a3216b2f259_Class2 ( obj_ce220e7a_5814_4a2b_9e85_9730cec10537 o )  ) )):named c45))

 ;end of formula 